HUN,8,6,630
4,5,2,4,3,17,1,18,0,17,5,11
1,4,2,17,4,18,5,27,3,27,0,1
4,5,0,5,5,16,1,7,3,19,2,1
1,6,5,27,2,23,4,12,0,7,3,30
5,20,3,17,2,29,0,23,1,8,4,4
5,30,0,1,4,18,2,15,3,21,1,29
0,16,4,21,1,7,2,7,5,27,3,11
2,15,5,22,1,4,0,19,4,8,3,7
